(declare-const v2 Bool)
(declare-const r0 Real)
(declare-const r2 Real)
(declare-const r3 Real)
(declare-const r4 Real)
(assert (and (= (/ 0.883 r2) (- 0.2146)) v2))
(declare-const r5 Real)
(declare-const r6 Real)
(declare-const r7 Real)
(check-sat)
